p cnf 44 94
1 2 3 0
-1 -2 0
-1 -3 0
-2 -3 0
4 5 6 7 8 0
-4 -5 0
-4 -6 0
-4 -7 0
-4 -8 0
-5 -6 0
-5 -7 0
-5 -8 0
-6 -7 0
-6 -8 0
-7 -8 0
9 10 11 0
-9 -10 0
-9 -11 0
-10 -11 0
12 13 14 15 0
-12 -13 0
-12 -14 0
-12 -15 0
-13 -14 0
-13 -15 0
-14 -15 0
16 17 18 19 0
-16 -17 0
-16 -18 0
-16 -19 0
-17 -18 0
-17 -19 0
-18 -19 0
20 21 0
-20 -21 0
22 23 0
-22 -23 0
24 25 26 0
-24 -25 0
-24 -26 0
-25 -26 0
27 28 29 30 0
-27 -28 0
-27 -29 0
-27 -30 0
-28 -29 0
-28 -30 0
-29 -30 0
31 32 33 0
-31 -32 0
-31 -33 0
-32 -33 0
34 35 36 0
-34 -35 0
-34 -36 0
-35 -36 0
37 38 0
-37 -38 0
39 40 0
-39 -40 0
41 42 0
-41 -42 0
43 44 0
-43 -44 0
-1 -4 0
-2 -7 0
-3 -8 0
-1 -9 0
-2 -10 0
-3 -11 0
-2 -33 0
-2 -37 0
-3 -38 0
-2 -44 0
-4 -9 0
-7 -10 0
-8 -11 0
-10 -23 0
-10 -33 0
-9 -34 0
-10 -36 0
-12 -27 0
-13 -29 0
-14 -30 0
-20 -39 0
-23 -41 0
-26 -42 0
-28 -39 0
-30 -40 0
-32 -35 0
-33 -36 0
-37 -40 0
-37 -41 0
-38 -42 0
